analyze/results_flowersnark/final_miplib_symretope_if_extended_generating_set_cpx_v802__settings_final_nosym_norestarts__3__neos-1109824.mps.gz.sol
solution status: optimal solution found
objective value:                                  378
C0004                                               1 	(obj:28)
C0048                                               1 	(obj:3)
C0070                                               1 	(obj:43)
C0083                                               1 	(obj:9)
C0118                                               1 	(obj:25)
C0141                                               1 	(obj:0)
C0167                                               1 	(obj:3)
C0178                                               1 	(obj:22)
C0191                                               1 	(obj:22)
C0250                                               1 	(obj:5)
C0295                                               1 	(obj:30)
C0396                                               1 	(obj:33)
C0476                                               1 	(obj:19)
C0595                                               1 	(obj:30)
C0696                                               1 	(obj:6)
C0772                                               1 	(obj:17)
C0780                                               1 	(obj:23)
C1006                                               1 	(obj:10)
C1104                                               1 	(obj:10)
C1154                                               1 	(obj:5)
C1423                                               1 	(obj:13)
C1482                                               1 	(obj:5)
C1502                                               1 	(obj:17)
