analyze/results_flowersnark/final_miplib_symretope_if_extended_generating_set_cpx_v802__settings_final_nosym_norestarts__3__neos-1109824.mps.gz.out
FILENAME:   /home/mcs001/s132664/testsets/IP/miplib2010/neos-1109824.mps.gz
SETTINGS:   settings_final_nosym_norestarts
TIMELIMIT:  7200
OUTPUTNAME: final_miplib_symretope_if_extended_generating_set_cpx_v802__settings_final_nosym_norestarts__3__
BINNAME:    bin/sbcs.linux.x86_64.gnu.opt.cpx
BASENAME:   neos-1109824.mps.gz
SEED:       3
@01 /home/mcs001/s132664/testsets/IP/miplib2010/neos-1109824.mps.gz ===========
@02 neos-1109824.mps.gz
@03 1686658490
SCIP version 8.0.2 [precision: 8 byte] [memory: block] [mode: optimized] [LP solver: CPLEX 20.1.0.0] [GitHash: 5f0473c]
Copyright (C) 2002-2022 Konrad-Zuse-Zentrum fuer Informationstechnik Berlin (ZIB)

Symretope propagation methods - (c) Jasper van Doornmalen, Christopher Hojny.
[GitHash: 2fd0484]

reading parameter file <../settings/settings_final_nosym_norestarts.set> ...

Changed settings:
limits/time = 7200
limits/restarts = 0
misc/usesymmetry = 0
randomization/randomseedshift = 3
constraints/orbisack/sepafreq = -1
constraints/symresack/sepafreq = -1
propagating/symmetry/detectsubgroups = FALSE
propagating/symmetry/usesymretopes = FALSE
propagating/symmetry/relabelsymretopes = 0
propagating/symmetry/ofsymcomptiming = 0
constraints/symretope/sepafreq = -1
constraints/symretope/peek = FALSE


solving problem ...

original problem has 1520 variables (1520 bin, 0 int, 0 impl, 0 cont) and 28979 constraints
presolving:
(round 1, exhaustive) 0 del vars, 19000 del conss, 0 add conss, 0 chg bounds, 0 chg sides, 0 chg coeffs, 0 upgd conss, 0 impls, 783 clqs
(round 2, exhaustive) 0 del vars, 19000 del conss, 0 add conss, 0 chg bounds, 0 chg sides, 0 chg coeffs, 9903 upgd conss, 0 impls, 783 clqs
   (1.2s) probing: 1000/1520 (65.8%) - 0 fixings, 0 aggregations, 51821 implications, 0 bound changes
   (1.2s) probing: 1001/1520 (65.9%) - 0 fixings, 0 aggregations, 51876 implications, 0 bound changes
   (1.2s) probing aborted: 1000/1000 successive useless probings
presolving (3 rounds: 3 fast, 3 medium, 3 exhaustive):
 0 deleted vars, 19000 deleted constraints, 0 added constraints, 0 tightened bounds, 0 added holes, 0 changed sides, 0 changed coefficients
 0 implications, 52659 cliques
presolved problem has 1520 variables (1520 bin, 0 int, 0 impl, 0 cont) and 9979 constraints
    783 constraints of type <setppc>
     76 constraints of type <linear>
   9120 constraints of type <logicor>
transformed objective value is always integral (scale: 1)
Presolving Time: 1.21

 time | node  | left  |LP iter|LP it/n|mem/heur|mdpt |vars |cons |rows |cuts |sepa|confs|strbr|  dualbound   | primalbound  |  gap   | compl. 
  1.4s|     1 |     0 |    38 |     - |    68M |   0 |1520 |  10k|9979 |   0 |  0 |  30 |   0 | 2.780000e+02 |      --      |    Inf | unknown
  1.8s|     1 |     0 |   858 |     - |    70M |   0 |1520 |  10k|  10k|  28 |  1 |  30 |   0 | 2.780000e+02 |      --      |    Inf | unknown
  1.9s|     1 |     0 |   932 |     - |    71M |   0 |1520 |  10k|  10k|  52 |  2 |  30 |   0 | 3.276667e+02 |      --      |    Inf | unknown
  2.1s|     1 |     0 |   951 |     - |    72M |   0 |1520 |  10k|  10k|  75 |  3 |  30 |   0 | 3.460000e+02 |      --      |    Inf | unknown
  2.2s|     1 |     0 |   964 |     - |    74M |   0 |1520 |  10k|  10k|  91 |  4 |  30 |   0 | 3.460000e+02 |      --      |    Inf | unknown
  2.5s|     1 |     0 |   973 |     - |    75M |   0 |1520 |  10k|  10k|  99 |  5 |  30 |   0 | 3.460000e+02 |      --      |    Inf | unknown
  2.7s|     1 |     0 |   991 |     - |    78M |   0 |1520 |  10k|  10k| 109 |  6 |  30 |   0 | 3.460000e+02 |      --      |    Inf | unknown
  3.0s|     1 |     0 |  1028 |     - |    79M |   0 |1520 |  10k|  10k| 127 |  7 |  30 |   0 | 3.460000e+02 |      --      |    Inf | unknown
  3.2s|     1 |     0 |  1053 |     - |    82M |   0 |1520 |9999 |  10k| 138 |  8 |  30 |   0 | 3.460000e+02 |      --      |    Inf | unknown
  3.5s|     1 |     0 |  1081 |     - |    84M |   0 |1520 |9998 |  10k| 150 |  9 |  30 |   0 | 3.460000e+02 |      --      |    Inf | unknown
  3.7s|     1 |     0 |  1093 |     - |    86M |   0 |1520 |9997 |  10k| 158 | 10 |  30 |   0 | 3.460000e+02 |      --      |    Inf | unknown
  3.7s|     1 |     0 |  1101 |     - |    89M |   0 |1520 |9997 |  10k| 161 | 11 |  30 |   0 | 3.460000e+02 |      --      |    Inf | unknown
  3.8s|     1 |     0 |  1112 |     - |    90M |   0 |1520 |9996 |  10k| 166 | 12 |  30 |   0 | 3.460000e+02 |      --      |    Inf | unknown
  3.8s|     1 |     0 |  1124 |     - |    91M |   0 |1520 |9996 |  10k| 171 | 13 |  30 |   0 | 3.460000e+02 |      --      |    Inf | unknown
  5.3s|     1 |     2 |  2769 |     - |    92M |   0 |1520 |9997 |  10k| 171 | 13 |  32 |  15 | 3.470833e+02 |      --      |    Inf | unknown
 time | node  | left  |LP iter|LP it/n|mem/heur|mdpt |vars |cons |rows |cuts |sepa|confs|strbr|  dualbound   | primalbound  |  gap   | compl. 
d 6.3s|     6 |     6 |  2973 | 370.0 |pscostdi|   5 |1520 |9991 |  10k|   0 |  1 |  32 |  89 | 3.470833e+02 | 4.260000e+02 |  22.74%|   0.57%
* 6.9s|    10 |     6 |  3087 | 218.2 |strongbr|   5 |1520 |9990 |  10k| 171 |  1 |  32 | 141 | 3.473684e+02 | 4.100000e+02 |  18.03%|   2.38%
* 7.0s|    11 |     6 |  3108 | 198.5 |strongbr|   5 |1520 |9990 |  10k| 171 |  2 |  33 | 154 | 3.473684e+02 | 4.080000e+02 |  17.45%|   7.94%
* 7.4s|    17 |     6 |  3200 | 129.8 |strongbr|   8 |1520 |  10k|  10k| 171 |  2 |  66 | 193 | 3.473684e+02 | 4.070000e+02 |  17.17%|  10.40%
* 7.4s|    17 |     6 |  3215 | 130.8 |strongbr|   8 |1520 |  10k|  10k| 171 |  4 |  74 | 197 | 3.473684e+02 | 4.050000e+02 |  16.59%|  10.40%
* 9.3s|    33 |     8 |  3723 |  81.2 |strongbr|   8 |1520 |  10k|  10k| 171 |  1 | 243 | 375 | 3.512000e+02 | 3.920000e+02 |  11.62%|  20.10%
*11.9s|    51 |    12 |  4219 |  61.9 |strongbr|  10 |1520 |  10k|  10k| 213 |  8 | 373 | 532 | 3.513333e+02 | 3.910000e+02 |  11.29%|  21.43%
*15.0s|    83 |     9 |  4913 |  46.2 |strongbr|  17 |1520 |9284 |  10k| 249 |  4 | 537 | 718 | 3.515333e+02 | 3.780000e+02 |   7.53%|  24.99%
 17.7s|   100 |    14 |  5498 |  44.2 |   121M |  17 |1520 |8959 |  10k| 296 |  9 | 707 | 881 | 3.537619e+02 | 3.780000e+02 |   6.85%|  28.95%
 23.9s|   200 |    28 |  7406 |  31.6 |   135M |  19 |1520 |9121 |  10k| 429 |  1 |1063 |1229 | 3.632500e+02 | 3.780000e+02 |   4.06%|  48.52%
 27.7s|   300 |    30 |  9082 |  26.6 |   137M |  24 |1520 |9519 |  10k| 472 |  1 |1547 |1409 | 3.636667e+02 | 3.780000e+02 |   3.94%|  58.46%
 32.0s|   400 |    34 | 10501 |  23.5 |   139M |  24 |1520 |9789 |  10k| 548 |  1 |1963 |1566 | 3.640000e+02 | 3.780000e+02 |   3.85%|  61.32%
 35.4s|   500 |    41 | 12190 |  22.2 |   139M |  24 |1520 |9900 |  10k| 583 |  6 |2400 |1779 | 3.640000e+02 | 3.780000e+02 |   3.85%|  61.40%
 37.9s|   600 |    39 | 13539 |  20.7 |   140M |  24 |1520 |  10k|  10k| 606 |  1 |2694 |1896 | 3.643750e+02 | 3.780000e+02 |   3.74%|  61.60%
 40.5s|   700 |    43 | 14966 |  19.8 |   140M |  30 |1520 |  10k|  10k| 640 |  1 |2872 |2013 | 3.643750e+02 | 3.780000e+02 |   3.74%|  62.38%
 time | node  | left  |LP iter|LP it/n|mem/heur|mdpt |vars |cons |rows |cuts |sepa|confs|strbr|  dualbound   | primalbound  |  gap   | compl. 
 42.5s|   800 |    45 | 16287 |  19.0 |   140M |  32 |1520 |  10k|  10k| 651 |  2 |3070 |2096 | 3.645385e+02 | 3.780000e+02 |   3.69%|  62.46%
 45.3s|   900 |    51 | 17491 |  18.2 |   140M |  32 |1520 |9946 |   0 | 701 |  0 |3190 |2183 | 3.653333e+02 | 3.780000e+02 |   3.47%|  68.67%
 48.6s|  1000 |    67 | 19155 |  18.1 |   144M |  32 |1520 |9841 |  10k| 770 |  2 |3473 |2273 | 3.653333e+02 | 3.780000e+02 |   3.47%|  68.81%
 50.6s|  1100 |    92 | 20373 |  17.5 |   145M |  32 |1520 |9766 |  10k| 808 |  0 |3621 |2315 | 3.664167e+02 | 3.780000e+02 |   3.16%|  70.91%
 52.4s|  1200 |    98 | 21543 |  17.0 |   146M |  32 |1520 |9709 |  10k| 844 |  3 |3742 |2363 | 3.675556e+02 | 3.780000e+02 |   2.84%|  71.46%
 54.2s|  1300 |    94 | 22618 |  16.5 |   146M |  32 |1520 |9627 |  10k| 863 |  0 |3841 |2413 | 3.680000e+02 | 3.780000e+02 |   2.72%|  74.13%
 55.9s|  1400 |    98 | 23611 |  16.1 |   147M |  33 |1520 |9680 |  10k| 894 |  1 |4005 |2482 | 3.686667e+02 | 3.780000e+02 |   2.53%|  76.06%
 57.9s|  1500 |    87 | 24550 |  15.6 |   147M |  34 |1520 |9754 |  10k| 899 |  1 |4201 |2555 | 3.700000e+02 | 3.780000e+02 |   2.16%|  77.01%
 59.0s|  1600 |    74 | 25155 |  15.0 |   148M |  38 |1520 |9774 |  10k| 912 |  1 |4330 |2581 | 3.700000e+02 | 3.780000e+02 |   2.16%|  77.06%
 60.2s|  1700 |    58 | 25870 |  14.6 |   148M |  38 |1520 |9748 |  10k| 926 |  1 |4407 |2612 | 3.701351e+02 | 3.780000e+02 |   2.12%|  78.25%
 61.0s|  1800 |    52 | 26468 |  14.1 |   148M |  38 |1520 |9765 |  10k| 932 |  1 |4465 |2623 | 3.701351e+02 | 3.780000e+02 |   2.12%|  78.25%
 62.4s|  1900 |    43 | 27262 |  13.8 |   148M |  38 |1520 |9749 |  10k| 938 |  0 |4541 |2649 | 3.701351e+02 | 3.780000e+02 |   2.12%|  79.47%
 63.5s|  2000 |    35 | 28079 |  13.5 |   148M |  38 |1520 |9754 |  10k| 941 |  2 |4610 |2663 | 3.715000e+02 | 3.780000e+02 |   1.75%|  80.12%
 64.6s|  2100 |    24 | 28835 |  13.2 |   149M |  40 |1520 |9733 |  10k| 957 |  0 |4659 |2682 | 3.725556e+02 | 3.780000e+02 |   1.46%|  84.57%
 66.1s|  2200 |    15 | 29579 |  12.9 |   152M |  43 |1520 |9687 |  10k| 972 |  1 |4695 |2707 | 3.745000e+02 | 3.780000e+02 |   0.93%|  94.66%
 time | node  | left  |LP iter|LP it/n|mem/heur|mdpt |vars |cons |rows |cuts |sepa|confs|strbr|  dualbound   | primalbound  |  gap   | compl. 
 67.1s|  2300 |     7 | 30122 |  12.6 |   152M |  43 |1520 |9729 |  10k| 979 |  0 |4765 |2733 | 3.745000e+02 | 3.780000e+02 |   0.93%|  96.08%

SCIP Status        : problem is solved [optimal solution found]
Solving Time (sec) : 67.45
Solving Nodes      : 2339
Primal Bound       : +3.78000000000000e+02 (9 solutions)
Dual Bound         : +3.78000000000000e+02
Gap                : 0.00 %
SCIP Status        : problem is solved [optimal solution found]
Total Time         :      67.57
  solving          :      67.45
  presolving       :       1.21 (included in solving)
  reading          :       0.12
  copying          :       0.38 (16 #copies) (minimal 0.02, maximal 0.03, average 0.02)
Original Problem   :
  Problem name     : neos-1109824
  Variables        : 1520 (1520 binary, 0 integer, 0 implicit integer, 0 continuous)
  Constraints      : 28979 initial, 28979 maximal
  Objective        : minimize, 1512 non-zeros (abs.min = 3, abs.max = 83)
Presolved Problem  :
  Problem name     : t_neos-1109824
  Variables        : 1520 (1520 binary, 0 integer, 0 implicit integer, 0 continuous)
  Constraints      : 9979 initial, 10205 maximal
  Objective        : minimize, 1512 non-zeros (abs.min = 3, abs.max = 83)
  Nonzeros         : 33288 constraint, 57458 clique table
Presolvers         :   ExecTime  SetupTime  Calls  FixedVars   AggrVars   ChgTypes  ChgBounds   AddHoles    DelCons    AddCons   ChgSides   ChgCoefs
  boundshift       :       0.00       0.00      0          0          0          0          0          0          0          0          0          0
  convertinttobin  :       0.00       0.00      0          0          0          0          0          0          0          0          0          0
  domcol           :       0.01       0.00      1          0          0          0          0          0          0          0          0          0
  dualagg          :       0.00       0.00      0          0          0          0          0          0          0          0          0          0
  dualcomp         :       0.00       0.00      0          0          0          0          0          0          0          0          0          0
  dualinfer        :       0.00       0.00      0          0          0          0          0          0          0          0          0          0
  dualsparsify     :       0.01       0.00      1          0          0          0          0          0          0          0          0          0
  gateextraction   :       0.01       0.00      1          0          0          0          0          0          0          0          0          0
  implics          :       0.00       0.00      3          0          0          0          0          0          0          0          0          0
  inttobinary      :       0.00       0.00      0          0          0          0          0          0          0          0          0          0
  qpkktref         :       0.00       0.00      0          0          0          0          0          0          0          0          0          0
  redvub           :       0.00       0.00      0          0          0          0          0          0          0          0          0          0
  sparsify         :       0.04       0.00      1          0          0          0          0          0          0          0          0          0
  stuffing         :       0.00       0.00      0          0          0          0          0          0          0          0          0          0
  trivial          :       0.00       0.00      3          0          0          0          0          0          0          0          0          0
  tworowbnd        :       0.00       0.00      0          0          0          0          0          0          0          0          0          0
  dualfix          :       0.00       0.00      3          0          0          0          0          0          0          0          0          0
  genvbounds       :       0.00       0.00      0          0          0          0          0          0          0          0          0          0
  probing          :       1.01       0.00      1          0          0          0          0          0          0          0          0          0
  pseudoobj        :       0.00       0.00      0          0          0          0          0          0          0          0          0          0
  symmetry         :       0.00       0.00      0          0          0          0          0          0          0          0          0          0
  vbounds          :       0.00       0.00      1          0          0          0          0          0          0          0          0          0
  knapsack         :       0.00       0.00      0          0          0          0          0          0          0          0          0          0
  setppc           :       0.00       0.00      3          0          0          0          0          0          0          0          0          0
  linear           :       0.08       0.01      6          0          0          0          0          0      19000          0          0          0
  logicor          :       0.01       0.00      3          0          0          0          0          0          0          0          0          0
  benders          :       0.00       0.00      0          0          0          0          0          0          0          0          0          0
  components       :       0.01       0.00      1          0          0          0          0          0          0          0          0          0
  root node        :          -          -      -        431          -          -        431          -          -          -          -          -
Constraints        :     Number  MaxNumber  #Separate #Propagate    #EnfoLP    #EnfoRelax  #EnfoPS    #Check   #ResProp    Cutoffs    DomReds       Cuts    Applied      Conss   Children
  benderslp        :          0          0          0          0       2000          0          0        290          0          0          0          0          0          0          0
  integral         :          0          0          0          0       2000          0          0        290          0          5       2698          0          0       3240       2366
  knapsack         :          0+        14          0      16603          0          0          0          0        549          8        960          0          0          0          0
  setppc           :        783+       840         13      24332          0          0          0        285      58646        100      26284          0          0          0          0
  linear           :         76+        80         13      24232          0          0          0         14      19311        278      24077          0          0          0          0
  logicor          :       9120+      9311         13      13364          0          0          0         12       5200        224       3911          1          0          0          0
  benders          :          0          0          0          0          0          0          0         13          0          0          0          0          0          0          0
  countsols        :          0          0          0          0          0          0          0         13          0          0          0          0          0          0          0
  components       :          0          0          0          0          0          0          0          0          0          0          0          0          0          0          0
Constraint Timings :  TotalTime  SetupTime   Separate  Propagate     EnfoLP     EnfoPS     EnfoRelax   Check    ResProp    SB-Prop
  benderslp        :       0.00       0.00       0.00       0.00       0.00       0.00       0.00       0.00       0.00       0.00
  integral         :      25.79       0.00       0.00       0.00      25.79       0.00       0.00       0.00       0.00       0.00
  knapsack         :       0.05       0.00       0.00       0.03       0.00       0.00       0.00       0.00       0.01       0.01
  setppc           :       0.42       0.00       0.00       0.18       0.00       0.00       0.00       0.00       0.02       0.22
  linear           :       0.70       0.01       0.02       0.38       0.00       0.00       0.00       0.00       0.07       0.22
  logicor          :       1.15       0.00       0.03       0.80       0.00       0.00       0.00       0.01       0.02       0.28
  benders          :       0.00       0.00       0.00       0.00       0.00       0.00       0.00       0.00       0.00       0.00
  countsols        :       0.00       0.00       0.00       0.00       0.00       0.00       0.00       0.00       0.00       0.00
  components       :       0.00       0.00       0.00       0.00       0.00       0.00       0.00       0.00       0.00       0.00
Propagators        : #Propagate   #ResProp    Cutoffs    DomReds
  dualfix          :          1          0          0          0
  genvbounds       :          0          0          0          0
  nlobbt           :          0          0          0          0
  obbt             :          0          0          0          0
  probing          :          0          0          0          0
  pseudoobj        :      11848          0          0          4
  redcost          :       6629          0          0      65126
  rootredcost      :          9          0          0        428
  symmetry         :          0          0          0          0
  vbounds          :       8345          0          0          0
Propagator Timings :  TotalTime  SetupTime   Presolve  Propagate    ResProp    SB-Prop
  dualfix          :       0.00       0.00       0.00       0.00       0.00       0.00
  genvbounds       :       0.01       0.00       0.00       0.01       0.00       0.00
  nlobbt           :       0.00       0.00       0.00       0.00       0.00       0.00
  obbt             :       0.00       0.00       0.00       0.00       0.00       0.00
  probing          :       1.01       0.00       1.01       0.00       0.00       0.00
  pseudoobj        :       0.05       0.00       0.00       0.05       0.00       0.00
  redcost          :       0.48       0.00       0.00       0.48       0.00       0.00
  rootredcost      :       0.01       0.00       0.00       0.01       0.00       0.00
  symmetry         :       0.00       0.00       0.00       0.00       0.00       0.00
  vbounds          :       0.03       0.00       0.00       0.03       0.00       0.01
Conflict Analysis  :       Time      Calls    Success    DomReds  Conflicts   Literals    Reconvs ReconvLits   Dualrays   Nonzeros   LP Iters   (pool size: [10000,10000])
  propagation      :       0.08        505        496          -       1850      152.6         77       39.6          -          -          -
  infeasible LP    :       0.05         31         31          -        123      179.4          5      208.0         20      131.6          0
  bound exceed. LP :       6.17       1335        941          -       5002      120.8         46       37.4          0        0.0       9892
  strong branching :       0.00          0          0          -          0        0.0          0        0.0          -          -          0
  pseudo solution  :       0.00          0          0          -          0        0.0          0        0.0          -          -          -
  applied globally :       0.90          -          -          0       4702       60.1          -          -         19          -          -
  applied locally  :          -          -          -          0         53      293.9          -          -          1          -          -
Separators         :   ExecTime  SetupTime      Calls  RootCalls    Cutoffs    DomReds  FoundCuts ViaPoolAdd  DirectAdd    Applied ViaPoolApp  DirectApp      Conss
  cut pool         :       0.41          -        664         25          -          -       3391       2277          -          -          -          -          -    (maximal pool size:       2029)
  aggregation      :       0.32       0.00        171         13          0          0          0          0          0          0          0          0          0
  > cmir           :          -          -          -          -          -          -          -          0          0          0          0          0          -
  > flowcover      :          -          -          -          -          -          -          -          0          0          0          0          0          -
  > knapsackcover  :          -          -          -          -          -          -          -          0          0          0          0          0          -
  cgmip            :       0.00       0.00          0          0          0          0          0          0          0          0          0          0          0
  clique           :       0.05       0.00         13         13          0          0         41         69          0         58         58          0          0
  closecuts        :       0.00       0.00          0          0          0          0          0          0          0          0          0          0          0
  convexproj       :       0.00       0.00          0          0          0          0          0          0          0          0          0          0          0
  disjunctive      :       0.00       0.00          0          0          0          0          0          0          0          0          0          0          0
  eccuts           :       0.00       0.00          0          0          0          0          0          0          0          0          0          0          0
  gauge            :       0.00       0.00          0          0          0          0          0          0          0          0          0          0          0
  gomory           :       8.92       0.00        141         10          0          0       3196       1476        200        497        496          1          0
  > gomorymi       :          -          -          -          -          -          -          -        205        100         30         29          1          -
  > strongcg       :          -          -          -          -          -          -          -       1271        100        467        467          0          -
  impliedbounds    :       0.36       0.00        171         13          0          0          0          0          0          0          0          0          0
  interminor       :       0.00       0.00          0          0          0          0          0          0          0          0          0          0          0
  intobj           :       0.00       0.00          0          0          0          0          0          0          0          0          0          0          0
  mcf              :       0.00       0.00          1          1          0          0          0          0          0          0          0          0          0
  minor            :       0.00       0.00          0          0          0          0          0          0          0          0          0          0          0
  mixing           :       0.00       0.00          0          0          0          0          0          0          0          0          0          0          0
  oddcycle         :       0.00       0.00          0          0          0          0          0          0          0          0          0          0          0
  rapidlearning    :       0.30       0.00          2          1          0          0          0          0          0          0          0          0          0
  rlt              :       0.00       0.00         10         10          0          0          0          0          0          0          0          0          0
  zerohalf         :       0.25       0.00        144         13          0          0        384        732         30        426        411         15          0
Cutselectors       :   ExecTime  SetupTime      Calls  RootCalls   Selected     Forced   Filtered  RootSelec   RootForc   RootFilt 
  hybrid           :       0.00       0.00        269         13        981          0       1527        171          0        376
Pricers            :   ExecTime  SetupTime      Calls       Vars
  problem variables:       0.00          -          0          0
Branching Rules    :   ExecTime  SetupTime   BranchLP  BranchExt   BranchPS    Cutoffs    DomReds       Cuts      Conss   Children
  allfullstrong    :       0.00       0.00          0          0          0          0          0          0          0          0
  cloud            :       0.00       0.00          0          0          0          0          0          0          0          0
  distribution     :       0.00       0.00          0          0          0          0          0          0          0          0
  fullstrong       :       0.00       0.00          0          0          0          0          0          0          0          0
  inference        :       0.00       0.00          0          0          0          0          0          0          0          0
  leastinf         :       0.00       0.00          0          0          0          0          0          0          0          0
  lookahead        :       0.00       0.00          0          0          0          0          0          0          0          0
  mostinf          :       0.00       0.00          0          0          0          0          0          0          0          0
  multaggr         :       0.00       0.00          0          0          0          0          0          0          0          0
  nodereopt        :       0.00       0.00          0          0          0          0          0          0          0          0
  pscost           :       0.00       0.00          0          0          0          0          0          0          0          0
  random           :       0.00       0.00          0          0          0          0          0          0          0          0
  relpscost        :      25.78       0.00       2000          0          0          5       2698          0       3517       2366
  vanillafullstrong:       0.00       0.00          0          0          0          0          0          0          0          0
Primal Heuristics  :   ExecTime  SetupTime      Calls      Found       Best
  LP solutions     :       0.00          -          -          0          0
  relax solutions  :       0.00          -          -          0          0
  pseudo solutions :       0.00          -          -          0          0
  strong branching :       0.04          -          -          7          7
  actconsdiving    :       0.00       0.00          0          0          0
  adaptivediving   :       0.04       0.00          5          0          0
  alns             :       0.30       0.00          4          0          0
  bound            :       0.00       0.00          0          0          0
  clique           :       0.04       0.00          1          0          0
  coefdiving       :       0.00       0.00          0          0          0
  completesol      :       0.00       0.00          0          0          0
  conflictdiving   :       0.07       0.00          3          0          0
  crossover        :       0.17       0.00          3          0          0
  dins             :       0.00       0.00          0          0          0
  distributiondivin:       0.13       0.00          2          0          0
  dps              :       0.00       0.00          0          0          0
  dualval          :       0.00       0.00          0          0          0
  farkasdiving     :       1.13       0.00          1          0          0
  feaspump         :       0.26       0.00          2          0          0
  fixandinfer      :       0.00       0.00          0          0          0
  fracdiving       :       0.01       0.00          3          0          0
  gins             :       0.01       0.00          0          0          0
  guideddiving     :       0.02       0.00          3          0          0
  indicator        :       0.00       0.00          0          0          0
  intdiving        :       0.00       0.00          0          0          0
  intshifting      :       0.00       0.00          0          0          0
  linesearchdiving :       0.01       0.00          3          0          0
  localbranching   :       0.00       0.00          0          0          0
  locks            :       0.02       0.00          1          0          0
  lpface           :       0.00       0.00          0          0          0
  mpec             :       0.00       0.00          0          0          0
  multistart       :       0.00       0.00          0          0          0
  mutation         :       0.00       0.00          0          0          0
  nlpdiving        :       0.00       0.00          0          0          0
  objpscostdiving  :       0.05       0.00          2          0          0
  octane           :       0.00       0.00          0          0          0
  ofins            :       0.00       0.00          0          0          0
  oneopt           :       0.01       0.00          7          0          0
  padm             :       0.00       0.00          0          0          0
  proximity        :       0.00       0.00          0          0          0
  pscostdiving     :       0.03       0.00          3          1          1
  randrounding     :       0.09       0.00        279          0          0
  rens             :       0.05       0.00          1          0          0
  reoptsols        :       0.00       0.00          0          0          0
  repair           :       0.00       0.00          0          0          0
  rins             :       0.34       0.00          6          1          0
  rootsoldiving    :       0.07       0.00          2          0          0
  rounding         :       0.36       0.00        674          0          0
  shiftandpropagate:       0.01       0.00          1          0          0
  shifting         :       0.24       0.00        272          0          0
  simplerounding   :       0.00       0.00          0          0          0
  subnlp           :       0.00       0.00          0          0          0
  trivial          :       0.00       0.00          2          0          0
  trivialnegation  :       0.00       0.00          0          0          0
  trustregion      :       0.00       0.00          0          0          0
  trysol           :       0.00       0.00          0          0          0
  twoopt           :       0.00       0.00          0          0          0
  undercover       :       0.00       0.00          0          0          0
  vbounds          :       0.04       0.00          1          0          0
  veclendiving     :       0.00       0.00          3          0          0
  zeroobj          :       0.00       0.00          0          0          0
  zirounding       :       0.06       0.00       1000          0          0
  other solutions  :          -          -          -          0          -
LP                 :       Time      Calls Iterations  Iter/call   Iter/sec  Time-0-It Calls-0-It    ItLimit
  primal LP        :       1.16        225          0       0.00       0.00       1.16        225
  dual LP          :      15.43       5394      27514       8.05    1782.99       1.57       1977
  lex dual LP      :       0.00          0          0       0.00          -
  barrier LP       :       0.00          0          0       0.00          -       0.00          0
  resolve instable :       0.00          0          0       0.00          -
  diving/probing LP:       3.10        362       2836       7.83     913.92
  strong branching :      12.60       2737      36035      13.17    2859.45          -          -        400
    (at root node) :          -         15        558      37.20          -
  conflict analysis:       3.87       1090       9892       9.08    2554.03
B&B Tree           :
  number of runs   :          1
  nodes            :       2339 (1183 internal, 1156 leaves)
  feasible leaves  :          0
  infeas. leaves   :        201
  objective leaves :        955
  nodes (total)    :       2339 (1183 internal, 1156 leaves)
  nodes left       :          0
  max depth        :         43
  max depth (total):         43
  backtracks       :        406 (17.4%)
  early backtracks :          0 (0.0%)
  nodes exc. ref.  :          0 (0.0%)
  delayed cutoffs  :         15
  repropagations   :        777 (837 domain reductions, 9 cutoffs)
  avg switch length:       5.02
  switching time   :       2.30
Root Node          :
  First LP value   : +2.78000000000000e+02
  First LP Iters   :         37 (1392.18 Iter/sec)
  First LP Time    :       0.03
  Final Dual Bound : +3.47083333333333e+02
  Final Root Iters :       1123
  Root LP Estimate : +3.65995497937190e+02
Solution           :
  Solutions found  :          9 (8 improvements)
  First Solution   : +4.26000000000000e+02   (in run 1, after 6 nodes, 6.29 seconds, depth 16, found by <pscostdiving>)
  Gap First Sol.   :      22.74 %
  Gap Last Sol.    :       7.53 %
  Primal Bound     : +3.78000000000000e+02   (in run 1, after 83 nodes, 15.04 seconds, depth 12, found by <relaxation>)
  Dual Bound       : +3.78000000000000e+02
  Gap              :       0.00 %
Integrals          :      Total       Avg%
  primal-dual      :     910.62      13.50
  primal-ref       :          -          - (not evaluated)
  dual-ref         :          -          - (not evaluated)
written solution information to file <results/final_miplib_symretope_if_extended_generating_set_cpx_v802__settings_final_nosym_norestarts__3__neos-1109824.mps.gz.sol>
@04 1686658557
